21° run output:
{
    "Function": "ClusterA300.tsp",
    "Problem dimension": [
        129,
        79,
        275,
        236,
        13,
        167,
        266,
        162,
        228,
        100,
        212,
        271,
        284,
        200,
        260,
        94,
        76,
        187,
        125,
        154,
        265,
        231,
        82,
        172,
        130,
        85,
        290,
        142,
        68,
        220,
        74,
        289,
        83,
        181,
        51,
        98,
        168,
        0,
        31,
        59,
        33,
        134,
        246,
        3,
        171,
        285,
        44,
        268,
        144,
        99,
        18,
        298,
        34,
        288,
        56,
        57,
        42,
        169,
        201,
        160,
        164,
        195,
        258,
        126,
        61,
        128,
        141,
        295,
        256,
        6,
        262,
        16,
        95,
        120,
        296,
        177,
        242,
        204,
        15,
        9,
        29,
        20,
        46,
        8,
        234,
        254,
        182,
        7,
        105,
        27,
        188,
        247,
        232,
        179,
        139,
        50,
        140,
        117,
        14,
        158,
        64,
        111,
        174,
        66,
        253,
        25,
        286,
        248,
        283,
        244,
        186,
        249,
        199,
        274,
        165,
        227,
        279,
        152,
        49,
        250,
        2,
        91,
        132,
        87,
        69,
        150,
        225,
        159,
        293,
        19,
        230,
        180,
        28,
        63,
        115,
        12,
        92,
        53,
        189,
        191,
        192,
        273,
        86,
        88,
        203,
        185,
        77,
        118,
        101,
        198,
        137,
        36,
        151,
        251,
        269,
        26,
        39,
        84,
        37,
        5,
        161,
        58,
        78,
        224,
        214,
        97,
        153,
        47,
        30,
        70,
        166,
        96,
        222,
        119,
        113,
        173,
        90,
        238,
        210,
        43,
        11,
        223,
        103,
        291,
        196,
        108,
        280,
        261,
        215,
        211,
        163,
        107,
        127,
        45,
        239,
        194,
        104,
        202,
        21,
        75,
        226,
        157,
        156,
        22,
        146,
        178,
        267,
        54,
        272,
        243,
        270,
        81,
        278,
        116,
        287,
        71,
        155,
        277,
        65,
        73,
        80,
        175,
        114,
        219,
        170,
        1,
        55,
        60,
        205,
        52,
        136,
        62,
        138,
        41,
        292,
        255,
        121,
        241,
        48,
        257,
        183,
        40,
        297,
        184,
        206,
        102,
        299,
        216,
        217,
        221,
        4,
        123,
        218,
        110,
        294,
        67,
        208,
        135,
        176,
        145,
        10,
        89,
        264,
        122,
        263,
        209,
        213,
        112,
        24,
        147,
        233,
        229,
        259,
        133,
        148,
        131,
        245,
        17,
        190,
        282,
        240,
        109,
        252,
        32,
        237,
        35,
        143,
        193,
        106,
        93,
        276,
        124,
        38,
        281,
        207,
        23,
        197,
        72,
        149,
        235
    ],
    "Global Optimum": 0,
    "Algorithm": "Genetic algorithm",
    "Parameters": {
        "population": 30,
        "offspring": 30,
        "mutation probability": 0.0033333333333333335,
        "crossover probability": 0.9
    },
    "Fitness": 312370,
    "Solution": [
        129,
        79,
        275,
        236,
        13,
        167,
        266,
        162,
        228,
        100,
        212,
        271,
        284,
        200,
        260,
        94,
        76,
        187,
        125,
        154,
        265,
        231,
        82,
        172,
        130,
        85,
        290,
        142,
        68,
        220,
        74,
        289,
        83,
        181,
        51,
        98,
        168,
        0,
        31,
        59,
        33,
        134,
        246,
        3,
        171,
        285,
        44,
        268,
        144,
        99,
        18,
        298,
        34,
        288,
        56,
        57,
        42,
        169,
        201,
        160,
        164,
        195,
        258,
        126,
        61,
        128,
        141,
        295,
        256,
        6,
        262,
        16,
        95,
        120,
        296,
        177,
        242,
        204,
        15,
        9,
        29,
        20,
        46,
        8,
        234,
        254,
        182,
        7,
        105,
        27,
        188,
        247,
        232,
        179,
        139,
        50,
        140,
        117,
        14,
        158,
        64,
        111,
        174,
        66,
        253,
        25,
        286,
        248,
        283,
        244,
        186,
        249,
        199,
        274,
        165,
        227,
        279,
        152,
        49,
        250,
        2,
        91,
        132,
        87,
        69,
        150,
        225,
        159,
        293,
        19,
        230,
        180,
        28,
        63,
        115,
        12,
        92,
        53,
        189,
        191,
        192,
        273,
        86,
        88,
        203,
        185,
        77,
        118,
        101,
        198,
        137,
        36,
        151,
        251,
        269,
        26,
        39,
        84,
        37,
        5,
        161,
        58,
        78,
        224,
        214,
        97,
        153,
        47,
        30,
        70,
        166,
        96,
        222,
        119,
        113,
        173,
        90,
        238,
        210,
        43,
        11,
        223,
        103,
        291,
        196,
        108,
        280,
        261,
        215,
        211,
        163,
        107,
        127,
        45,
        239,
        194,
        104,
        202,
        21,
        75,
        226,
        157,
        156,
        22,
        146,
        178,
        267,
        54,
        272,
        243,
        270,
        81,
        278,
        116,
        287,
        71,
        155,
        277,
        65,
        73,
        80,
        175,
        114,
        219,
        170,
        1,
        55,
        60,
        205,
        52,
        136,
        62,
        138,
        41,
        292,
        255,
        121,
        241,
        48,
        257,
        183,
        40,
        297,
        184,
        206,
        102,
        299,
        216,
        217,
        221,
        4,
        123,
        218,
        110,
        294,
        67,
        208,
        135,
        176,
        145,
        10,
        89,
        264,
        122,
        263,
        209,
        213,
        112,
        24,
        147,
        233,
        229,
        259,
        133,
        148,
        131,
        245,
        17,
        190,
        282,
        240,
        109,
        252,
        32,
        237,
        35,
        143,
        193,
        106,
        93,
        276,
        124,
        38,
        281,
        207,
        23,
        197,
        72,
        149,
        235
    ],
    "Nb of functions evaluations": 200010,
    "Computational time in seconds": 364.3563485145569,
    "Stopping criterion in evaluations": 200000
}